int NumberPatients = 164
int NumberOfRooms = 7
int NumberSurgeons = 18
int NumberOfDays = 6
Duration = [31,66,50,47,201,31,31,53,119,119,32,98,103,66,112,130,101,47,31,103,98,98,260,105,93,126,98,64,32,31,103,32,157,47,79,66,32,130,66,47,119,101,119,47,85,31,166,157,32,47,238,66,72,65,103,98,105,103,32,138,32,98,119,31,74,238,132,39,81,98,66,131,44,50,119,78,50,55,74,32,98,98,31,78,78,60,66,53,98,53,103,103,131,31,98,40,59,140,210,105,47,119,32,217,165,66,244,98,103,31,105,238,66,238,66,98,103,131,72,40,131,78,46,103,103,66,205,32,159,98,98,53,66,32,98,105,131,119,93,105,119,47,98,60,72,98,103,72,210,47,103,31,98,47,119,47,38,60,119,60,119,93,210,165];
Priority = [0,0,0,0,0,0,0,0,0,0,0,0,0,0,0,0,0,0,0,0,0,0,0,0,0,0,0,0,0,0,0,0,0,0,0,0,0,0,0,0,0,0,0,0,0,0,0,0,0,0,0,0,0,0,0,0,0,0,0,0,0,0,0,0,0,0,0,0,0,0,0,0,0,0,0,0,1,0,0,0,0,0,0,0,0,0,0,0,0,0,0,0,0,0,0,0,0,0,0,0,0,0,0,0,2,0,0,0,0,0,0,0,0,0,0,0,0,0,0,0,0,0,0,0,0,0,0,0,0,0,0,0,0,0,0,0,0,0,0,0,0,0,0,0,0,0,0,0,0,0,0,0,0,0,0,0,0,0,0,0,0,0,0,0];
Waiting = [164,190,108,38,79,74,52,148,366,288,387,73,45,225,66,30,79,221,24,64,227,277,46,39,172,70,65,151,59,338,382,207,95,156,155,214,56,121,150,78,70,30,102,56,25,165,73,78,37,120,270,163,259,249,422,37,127,134,92,534,142,191,191,148,43,102,24,1047,50,57,480,80,56,205,190,49,49,39,67,142,32,193,214,30,141,50,52,65,32,24,65,35,70,52,46,65,291,25,32,107,207,141,71,71,50,205,135,107,66,102,45,49,101,122,80,155,37,106,256,78,65,115,24,141,78,30,141,21,127,116,172,396,78,107,50,78,275,43,67,115,31,507,445,78,280,65,45,456,63,158,52,99,31,25,63,172,144,459,66,213,85,494,45,78];
Surgeon = [5,1,3,7,10,5,1,4,1,6,5,1,5,6,4,2,2,1,3,10,9,5,1,1,3,3,5,6,1,1,8,5,5,3,2,4,16,2,3,8,1,7,3,5,12,5,1,1,3,3,5,6,2,5,3,3,3,1,4,4,3,1,8,8,5,2,5,2,4,3,5,4,5,5,5,9,5,8,4,5,4,2,4,3,3,6,5,5,4,8,3,7,3,15,4,1,5,3,10,5,1,6,4,1,6,3,1,3,4,5,4,6,10,3,11,5,1,2,2,3,11,12,2,2,2,2,3,4,4,2,6,1,3,2,1,4,1,2,2,6,6,4,7,7,4,6,1,3,12,2,3,6,3,5,4,2,2,3,4,5,7,10,4,15];
BlockAvailability = [[[0,0],[1,0],[0,1],[0,0],[0,0],[1,0],[0,1]],[[0,0],[0,0],[1,0],[1,1],[0,0],[0,0],[0,0]],[[0,0],[0,0],[1,0],[1,0],[0,0],[0,0],[0,0]],[[1,0],[1,0],[0,0],[0,0],[0,0],[0,0],[1,0]],[[0,0],[0,0],[0,0],[0,0],[0,0],[0,0],[0,0]],[[0,0],[0,0],[0,0],[0,0],[0,1],[1,0],[0,0]]];
SurgeonAvailability = [[[1,0],[0,1],[1,1],[1,1],[0,0],[0,1]],[[1,0],[0,1],[1,1],[1,1],[1,1],[1,1]],[[1,0],[1,0],[1,1],[1,0],[1,1],[1,0]],[[1,1],[0,1],[1,1],[1,0],[1,1],[1,0]],[[1,1],[1,1],[1,1],[1,1],[0,1],[0,1]],[[0,1],[0,0],[1,1],[1,1],[0,1],[0,1]],[[1,1],[1,0],[1,1],[1,0],[1,1],[1,0]],[[1,0],[0,1],[1,1],[1,0],[1,1],[0,0]],[[0,1],[1,1],[0,1],[1,0],[1,1],[1,1]],[[0,0],[1,1],[1,0],[0,0],[0,1],[1,1]],[[0,1],[1,1],[1,1],[1,0],[1,0],[0,0]],[[1,1],[1,1],[1,1],[0,1],[1,1],[1,1]],[[0,1],[1,1],[1,1],[0,1],[1,1],[1,1]],[[1,1],[1,1],[0,1],[1,1],[0,1],[1,1]],[[1,1],[1,1],[1,1],[0,1],[1,1],[1,1]],[[1,1],[1,0],[1,1],[0,0],[0,1],[1,1]],[[0,1],[1,1],[1,0],[1,1],[1,1],[1,1]],[[0,1],[0,1],[1,1],[1,0],[1,0],[1,0]]];
